
n_res = 6;
rcap = [33, 31, 31, 30, 1619, 1799];
rtype = [1, 1, 1, 1, 2, 2];
n_tasks = 100;
modes =  [{1, 2, 3}, {4, 5, 6}, {7, 8, 9}, {10, 11, 12}, {13, 14, 15}, {16, 17, 18}, {19, 20, 21}, {22, 23, 24}, {25, 26, 27}, {28, 29, 30}, {31, 32, 33}, {34, 35, 36}, {37, 38, 39}, {40, 41, 42}, {43, 44, 45}, {46, 47, 48}, {49, 50, 51}, {52, 53, 54}, {55, 56, 57}, {58, 59, 60}, {61, 62, 63}, {64, 65, 66}, {67, 68, 69}, {70, 71, 72}, {73, 74, 75}, {76, 77, 78}, {79, 80, 81}, {82, 83, 84}, {85, 86, 87}, {88, 89, 90}, {91, 92, 93}, {94, 95, 96}, {97, 98, 99}, {100, 101, 102}, {103, 104, 105}, {106, 107, 108}, {109, 110, 111}, {112, 113, 114}, {115, 116, 117}, {118, 119, 120}, {121, 122, 123}, {124, 125, 126}, {127, 128, 129}, {130, 131, 132}, {133, 134, 135}, {136, 137, 138}, {139, 140, 141}, {142, 143, 144}, {145, 146, 147}, {148, 149, 150}, {151, 152, 153}, {154, 155, 156}, {157, 158, 159}, {160, 161, 162}, {163, 164, 165}, {166, 167, 168}, {169, 170, 171}, {172, 173, 174}, {175, 176, 177}, {178, 179, 180}, {181, 182, 183}, {184, 185, 186}, {187, 188, 189}, {190, 191, 192}, {193, 194, 195}, {196, 197, 198}, {199, 200, 201}, {202, 203, 204}, {205, 206, 207}, {208, 209, 210}, {211, 212, 213}, {214, 215, 216}, {217, 218, 219}, {220, 221, 222}, {223, 224, 225}, {226, 227, 228}, {229, 230, 231}, {232, 233, 234}, {235, 236, 237}, {238, 239, 240}, {241, 242, 243}, {244, 245, 246}, {247, 248, 249}, {250, 251, 252}, {253, 254, 255}, {256, 257, 258}, {259, 260, 261}, {262, 263, 264}, {265, 266, 267}, {268, 269, 270}, {271, 272, 273}, {274, 275, 276}, {277, 278, 279}, {280, 281, 282}, {283, 284, 285}, {286, 287, 288}, {289, 290, 291}, {292, 293, 294}, {295, 296, 297}, {298, 299, 300}];
succ =  [{45, 42, 38, 36, 35, 33, 32, 29, 25, 23, 21, 18, 16}, {45, 43, 37, 36, 31, 29, 28, 27, 26, 25, 23}, {50, 46, 45, 42, 38, 37, 31, 30, 29, 25, 23, 21}, {46, 43, 37, 35, 29, 28, 26, 25, 23, 22}, {46, 45, 43, 38, 37, 36, 33, 25, 23, 21}, {43, 42, 39, 38, 36, 17, 16}, {56, 44, 43, 42, 41, 35, 24, 23, 16}, {58, 52, 50, 47, 46, 45, 43, 38, 36, 34, 31, 29}, {44, 41, 30, 24, 16}, {60, 55, 53, 52, 51, 49, 46, 42, 39, 38, 32, 29}, {59, 58, 55, 54, 52, 51, 48, 47, 43, 40, 38, 35, 31}, {56, 52, 51, 42, 32, 24, 23}, {54, 52, 46, 43, 42, 38, 23}, {54, 52, 50, 46, 44, 28, 23}, {69, 60, 58, 56, 54, 53, 51, 50, 48, 46, 45, 42, 40, 39}, {58, 50, 47, 46, 40, 37, 34, 31}, {56, 55, 53, 50, 49, 44, 29}, {100, 74, 61, 60, 59, 55, 54, 53, 50, 49, 43, 41, 39}, {60, 58, 52, 40, 24}, {61, 60, 58, 55, 54, 48, 44, 43, 41, 40}, {77, 66, 61, 60, 59, 58, 56, 54, 53, 52, 51, 48, 44}, {79, 66, 64, 59, 58, 57, 55, 53, 52, 48, 38}, {69, 58, 53, 40, 34}, {77, 74, 71, 69, 68, 65, 62, 61, 59, 57, 54, 53, 49, 48}, {74, 66, 61, 54, 51, 47, 44, 39}, {79, 68, 65, 64, 60, 59, 58, 57, 50, 48, 44}, {99, 79, 71, 60, 53, 51, 49, 46, 42}, {100, 99, 77, 69, 68, 63, 60, 55, 53, 49, 40}, {83, 77, 69, 68, 66, 61, 59, 54, 48, 40}, {100, 79, 76, 75, 74, 69, 68, 67, 66, 65, 64, 63, 62, 61, 57, 55, 53}, {100, 99, 79, 77, 76, 74, 70, 68, 67, 65, 62, 61, 53, 49}, {86, 85, 83, 79, 77, 69, 68, 65, 64, 62, 58, 57, 50}, {99, 84, 71, 68, 55, 50, 48, 47}, {99, 98, 79, 77, 68, 66, 60, 59, 57, 55, 48}, {99, 98, 85, 84, 77, 74, 70, 68, 64, 60, 50}, {100, 86, 85, 83, 82, 81, 77, 75, 73, 68, 67, 65, 57, 54}, {86, 85, 83, 79, 76, 74, 70, 66, 62, 59, 52}, {100, 83, 76, 74, 73, 68, 44}, {99, 98, 85, 83, 82, 81, 76, 75, 71, 68, 65, 64, 63, 57}, {85, 82, 81, 76, 75, 73, 67, 65, 64, 62, 57}, {97, 96, 86, 83, 77, 72, 69, 67, 66, 65, 62}, {96, 81, 78, 76, 75, 74, 72, 68, 67, 66, 63, 59}, {97, 96, 86, 85, 84, 83, 78, 76, 75, 68, 67, 66, 63}, {97, 96, 86, 85, 82, 78, 75, 71, 69, 67, 62}, {100, 98, 85, 83, 82, 81, 76, 75, 70, 67, 65}, {86, 84, 83, 81, 78, 77, 76, 74, 70, 61}, {96, 86, 85, 83, 77, 73, 72, 69, 65}, {100, 94, 85, 82, 81, 78, 76, 70, 67, 63}, {98, 95, 86, 85, 83, 81, 75, 66, 64}, {97, 96, 81, 78, 76, 75, 72, 67, 66}, {100, 96, 86, 75, 72, 62}, {99, 96, 93, 88, 69, 65}, {97, 96, 94, 93, 92, 89, 84, 83, 81, 78}, {99, 98, 97, 96, 95, 94, 91, 87, 79, 72}, {97, 94, 92, 86, 83, 82, 72, 70}, {98, 97, 96, 95, 94, 91, 89, 80, 74}, {97, 95, 94, 92, 91, 87, 72, 70}, {99, 96, 94, 91, 80, 74, 72}, {97, 94, 93, 84, 82, 80, 73}, {95, 90, 83, 82, 76, 75, 73}, {97, 95, 94, 92, 87, 80, 72}, {98, 95, 94, 91, 87, 84, 80}, {95, 92, 87, 80, 73}, {94, 87, 80, 72}, {94, 91, 89, 87, 78}, {93, 82, 73}, {95, 93, 90, 89, 88, 87}, {92, 91, 89, 88, 87}, {98, 92, 91, 81}, {96, 93, 90, 88}, {93, 92, 90, 89}, {93, 89, 88}, {91, 89, 88}, {92, 88, 87}, {92, 89}, {89, 88}, {95, 87}, {80}, {80}, {90}, {87}, {87}, {91}, {88}, {90}, {91}, {}, {}, {}, {}, {}, {}, {}, {}, {}, {}, {}, {}, {}, {}];
n_opt = 300;
dur = [7, 14, 24, 6, 20, 22, 14, 18, 29, 5, 6, 28, 16, 19, 30, 5, 6, 12, 21, 26, 30, 11, 14, 15, 1, 10, 24, 2, 9, 16, 5, 18, 19, 3, 15, 25, 4, 13, 27, 7, 8, 14, 5, 14, 27, 18, 24, 27, 1, 3, 12, 2, 12, 16, 7, 22, 23, 4, 11, 19, 3, 8, 13, 3, 10, 25, 5, 17, 25, 5, 17, 20, 11, 19, 23, 1, 4, 30, 21, 22, 25, 4, 13, 20, 7, 14, 20, 15, 16, 17, 17, 23, 26, 2, 26, 29, 1, 2, 25, 20, 21, 28, 21, 29, 30, 1, 12, 19, 13, 16, 17, 14, 18, 29, 3, 15, 16, 2, 24, 27, 13, 14, 30, 19, 25, 28, 6, 11, 30, 1, 10, 17, 12, 23, 28, 4, 5, 20, 2, 8, 16, 14, 18, 29, 5, 13, 24, 10, 19, 26, 10, 15, 25, 4, 5, 6, 7, 19, 22, 14, 21, 27, 4, 11, 13, 2, 17, 23, 6, 9, 21, 11, 12, 17, 7, 9, 15, 9, 10, 15, 4, 24, 26, 1, 21, 26, 1, 5, 12, 22, 26, 27, 1, 16, 26, 6, 24, 25, 11, 12, 17, 13, 17, 28, 4, 19, 20, 2, 7, 19, 5, 19, 21, 3, 25, 26, 6, 16, 30, 17, 22, 24, 7, 9, 16, 12, 18, 22, 2, 5, 7, 5, 22, 23, 17, 21, 27, 2, 4, 22, 4, 14, 17, 15, 16, 23, 7, 15, 21, 18, 21, 27, 15, 22, 29, 2, 25, 26, 14, 15, 18, 7, 23, 29, 4, 25, 28, 2, 3, 21, 3, 19, 20, 6, 10, 30, 11, 13, 27, 7, 8, 29, 6, 13, 15, 2, 22, 23, 4, 5, 19, 1, 16, 20, 12, 20, 29, 2, 7, 23];
rreq = [|5, 3, 3, 3, 3, 2, 5, 3, 1, 1, 1, 1, 3, 3, 3, 3, 2, 2, 4, 3, 3, 4, 4, 4, 4, 3, 3, 2, 2, 2, 4, 3, 3, 5, 4, 2, 4, 4, 2, 5, 5, 5, 3, 2, 2, 5, 3, 3, 2, 1, 1, 4, 3, 2, 4, 4, 4, 2, 1, 1, 4, 4, 4, 3, 3, 1, 3, 3, 2, 2, 2, 2, 3, 3, 3, 5, 4, 4, 3, 3, 3, 4, 3, 2, 4, 3, 1, 4, 2, 2, 4, 2, 2, 4, 3, 2, 5, 4, 4, 3, 1, 1, 4, 2, 2, 3, 2, 1, 4, 3, 3, 4, 4, 4, 4, 3, 3, 5, 4, 4, 5, 4, 4, 4, 4, 4, 4, 4, 3, 4, 2, 2, 2, 2, 2, 4, 2, 1, 4, 2, 2, 4, 2, 1, 5, 3, 3, 3, 3, 1, 3, 3, 1, 5, 5, 5, 1, 1, 1, 3, 3, 2, 5, 2, 1, 1, 1, 1, 4, 3, 2, 4, 2, 1, 3, 2, 2, 4, 4, 4, 1, 1, 1, 3, 3, 3, 2, 1, 1, 3, 2, 1, 3, 1, 1, 4, 3, 2, 4, 3, 2, 3, 2, 2, 4, 2, 2, 3, 3, 3, 4, 3, 1, 3, 3, 3, 1, 1, 1, 5, 3, 1, 5, 5, 5, 2, 2, 2, 3, 3, 3, 4, 3, 2, 4, 3, 2, 1, 1, 1, 2, 1, 1, 3, 2, 2, 3, 3, 3, 3, 2, 2, 3, 2, 1, 2, 2, 2, 3, 2, 2, 3, 3, 3, 1, 1, 1, 3, 3, 2, 3, 2, 2, 4, 4, 4, 4, 4, 2, 4, 3, 1, 4, 3, 3, 5, 3, 2, 3, 3, 3, 3, 3, 3, 2, 2, 2, 2, 1, 1
 |4, 4, 4, 3, 3, 1, 4, 4, 4, 3, 3, 3, 3, 2, 1, 4, 2, 1, 3, 2, 2, 5, 3, 2, 2, 1, 1, 2, 2, 2, 3, 1, 1, 3, 3, 1, 4, 3, 1, 4, 3, 2, 3, 2, 2, 3, 2, 2, 2, 2, 2, 1, 1, 1, 3, 3, 2, 4, 2, 2, 4, 3, 2, 4, 4, 3, 3, 2, 1, 3, 2, 2, 4, 3, 3, 2, 1, 1, 3, 3, 3, 4, 3, 3, 3, 3, 3, 4, 3, 3, 4, 4, 4, 4, 4, 4, 3, 3, 2, 5, 3, 3, 4, 3, 3, 3, 3, 2, 1, 1, 1, 4, 3, 3, 1, 1, 1, 3, 2, 2, 5, 4, 3, 5, 3, 1, 4, 3, 3, 4, 2, 2, 5, 4, 4, 5, 5, 5, 3, 2, 1, 2, 1, 1, 5, 5, 5, 4, 4, 3, 5, 5, 5, 2, 2, 2, 2, 2, 2, 3, 2, 2, 3, 3, 3, 2, 2, 2, 3, 1, 1, 2, 2, 1, 3, 2, 2, 3, 3, 1, 4, 3, 2, 3, 2, 1, 4, 3, 2, 4, 3, 2, 4, 4, 2, 5, 4, 4, 3, 2, 1, 5, 3, 2, 4, 3, 3, 1, 1, 1, 5, 5, 5, 1, 1, 1, 5, 4, 4, 4, 3, 3, 3, 2, 2, 3, 2, 2, 5, 4, 3, 3, 3, 3, 3, 3, 3, 2, 2, 2, 4, 4, 3, 4, 4, 4, 3, 2, 2, 5, 5, 5, 2, 2, 1, 2, 2, 2, 4, 4, 4, 2, 2, 2, 2, 2, 1, 3, 2, 2, 4, 3, 2, 4, 4, 3, 5, 4, 4, 4, 2, 2, 3, 3, 2, 5, 3, 3, 3, 2, 2, 3, 2, 2, 3, 3, 3, 4, 3, 2
 |5, 5, 5, 4, 4, 4, 3, 3, 3, 4, 3, 3, 5, 4, 3, 3, 3, 1, 1, 1, 1, 3, 3, 3, 3, 2, 2, 4, 4, 4, 5, 4, 4, 5, 4, 4, 2, 1, 1, 4, 4, 4, 4, 3, 1, 4, 3, 1, 2, 1, 1, 3, 3, 3, 1, 1, 1, 1, 1, 1, 4, 3, 3, 3, 3, 3, 5, 4, 3, 2, 2, 2, 3, 3, 2, 3, 3, 2, 4, 2, 2, 2, 2, 1, 3, 3, 2, 2, 2, 2, 3, 1, 1, 3, 3, 1, 4, 2, 1, 2, 1, 1, 2, 2, 2, 4, 2, 1, 3, 3, 2, 5, 3, 3, 3, 2, 2, 3, 3, 2, 3, 3, 3, 5, 4, 3, 1, 1, 1, 5, 3, 3, 2, 1, 1, 2, 1, 1, 2, 2, 2, 4, 4, 4, 5, 4, 3, 2, 2, 2, 4, 4, 4, 2, 2, 1, 5, 4, 3, 1, 1, 1, 5, 5, 5, 4, 3, 2, 3, 2, 1, 3, 2, 2, 1, 1, 1, 4, 2, 2, 2, 2, 2, 2, 2, 2, 3, 2, 2, 5, 3, 2, 4, 2, 1, 5, 5, 5, 2, 1, 1, 1, 1, 1, 3, 3, 3, 3, 2, 2, 3, 3, 1, 2, 2, 2, 3, 3, 3, 2, 1, 1, 4, 4, 4, 4, 3, 3, 5, 4, 4, 4, 4, 4, 5, 3, 1, 4, 4, 3, 1, 1, 1, 4, 3, 3, 5, 4, 4, 5, 4, 3, 3, 3, 3, 5, 3, 3, 3, 3, 3, 3, 3, 2, 3, 3, 3, 3, 3, 3, 1, 1, 1, 3, 2, 2, 5, 4, 2, 3, 3, 2, 3, 2, 2, 5, 3, 3, 3, 3, 3, 2, 2, 2, 4, 2, 2, 4, 2, 2
 |5, 3, 3, 2, 1, 1, 3, 2, 1, 3, 3, 2, 5, 4, 3, 4, 3, 3, 3, 3, 3, 3, 2, 2, 4, 4, 4, 3, 3, 2, 4, 4, 4, 2, 1, 1, 1, 1, 1, 4, 2, 2, 2, 2, 1, 2, 2, 2, 5, 2, 1, 5, 2, 1, 3, 2, 2, 5, 3, 3, 4, 4, 4, 1, 1, 1, 2, 2, 2, 3, 3, 1, 4, 3, 3, 4, 3, 2, 4, 4, 3, 4, 4, 3, 3, 3, 2, 4, 3, 2, 4, 3, 3, 3, 3, 3, 5, 4, 4, 5, 5, 5, 3, 3, 3, 3, 3, 2, 3, 3, 1, 3, 2, 2, 4, 4, 4, 1, 1, 1, 4, 3, 2, 5, 4, 4, 2, 1, 1, 5, 3, 2, 5, 5, 5, 1, 1, 1, 5, 5, 5, 2, 2, 1, 4, 4, 4, 1, 1, 1, 2, 2, 2, 2, 2, 2, 3, 2, 2, 4, 2, 2, 5, 2, 2, 4, 3, 3, 2, 2, 2, 4, 2, 2, 3, 2, 1, 5, 5, 5, 3, 2, 1, 4, 3, 2, 4, 2, 2, 2, 2, 2, 5, 5, 5, 4, 4, 3, 2, 2, 2, 3, 2, 2, 5, 5, 5, 4, 3, 2, 2, 1, 1, 4, 4, 4, 3, 3, 3, 4, 3, 3, 4, 4, 4, 1, 1, 1, 3, 3, 2, 4, 2, 2, 3, 3, 3, 4, 4, 2, 3, 3, 3, 4, 3, 3, 4, 4, 3, 4, 4, 4, 3, 2, 2, 5, 4, 4, 4, 3, 3, 4, 3, 3, 5, 4, 4, 3, 3, 3, 3, 3, 2, 4, 4, 3, 4, 4, 3, 2, 1, 1, 2, 2, 2, 3, 3, 3, 4, 4, 4, 2, 2, 2, 3, 3, 2, 3, 3, 3
 |17, 13, 4, 26, 22, 12, 15, 15, 13, 7, 6, 4, 26, 21, 20, 4, 4, 4, 23, 12, 9, 10, 10, 8, 16, 15, 13, 19, 14, 11, 20, 17, 7, 23, 21, 20, 26, 16, 7, 30, 17, 16, 26, 25, 25, 22, 15, 10, 25, 24, 17, 14, 14, 14, 25, 9, 2, 9, 9, 9, 3, 3, 2, 22, 22, 21, 9, 9, 4, 14, 10, 8, 15, 14, 14, 22, 22, 22, 5, 4, 4, 6, 5, 4, 29, 25, 18, 21, 17, 15, 17, 16, 16, 11, 11, 11, 13, 12, 12, 7, 6, 3, 23, 22, 22, 21, 14, 12, 16, 9, 1, 16, 16, 16, 17, 16, 16, 5, 5, 4, 13, 12, 6, 25, 11, 3, 13, 12, 7, 25, 25, 25, 21, 17, 12, 26, 21, 14, 25, 19, 16, 14, 9, 7, 19, 18, 16, 8, 7, 6, 14, 7, 6, 11, 8, 7, 8, 7, 6, 27, 24, 22, 28, 25, 22, 10, 7, 5, 22, 22, 22, 23, 22, 22, 16, 14, 10, 20, 12, 6, 28, 18, 9, 20, 16, 7, 28, 26, 25, 24, 21, 21, 19, 19, 17, 10, 6, 2, 3, 1, 1, 9, 9, 9, 3, 3, 2, 9, 8, 2, 24, 21, 18, 21, 14, 7, 7, 6, 6, 12, 10, 9, 26, 19, 10, 22, 21, 20, 17, 8, 4, 6, 6, 6, 12, 9, 2, 29, 28, 28, 25, 23, 22, 15, 8, 7, 23, 22, 20, 10, 10, 9, 18, 17, 9, 14, 12, 11, 21, 15, 6, 21, 20, 20, 16, 15, 15, 12, 12, 12, 30, 24, 20, 22, 17, 3, 22, 21, 20, 25, 24, 19, 28, 26, 24, 7, 6, 5, 24, 22, 22, 24, 12, 8, 21, 15, 9, 23, 13, 1
 |17, 15, 12, 29, 17, 9, 6, 4, 4, 12, 9, 6, 28, 27, 24, 22, 14, 3, 18, 11, 9, 26, 19, 16, 15, 7, 6, 26, 23, 22, 30, 30, 30, 12, 8, 6, 21, 20, 18, 20, 15, 12, 26, 20, 16, 18, 13, 10, 20, 19, 16, 12, 11, 11, 29, 27, 27, 26, 18, 14, 18, 17, 16, 28, 22, 20, 22, 17, 15, 27, 25, 22, 25, 21, 10, 23, 22, 22, 21, 18, 14, 10, 9, 8, 14, 12, 12, 22, 21, 15, 25, 11, 7, 22, 16, 8, 4, 3, 2, 28, 28, 28, 16, 12, 7, 17, 14, 12, 25, 16, 14, 8, 7, 6, 12, 9, 8, 23, 20, 15, 19, 14, 4, 22, 21, 18, 22, 19, 17, 17, 17, 14, 8, 6, 5, 24, 12, 10, 10, 8, 5, 30, 29, 28, 27, 22, 19, 10, 8, 5, 16, 16, 14, 29, 27, 25, 20, 15, 4, 23, 22, 22, 29, 27, 27, 11, 7, 4, 12, 9, 7, 21, 13, 13, 20, 15, 7, 22, 13, 6, 9, 7, 4, 25, 24, 22, 17, 16, 2, 3, 2, 2, 28, 24, 23, 18, 16, 14, 17, 17, 17, 30, 28, 27, 13, 13, 13, 14, 9, 7, 28, 23, 15, 4, 4, 4, 17, 14, 12, 18, 14, 11, 28, 26, 25, 27, 22, 19, 20, 12, 6, 20, 11, 5, 15, 9, 4, 25, 17, 16, 8, 8, 7, 21, 20, 19, 21, 20, 19, 15, 13, 12, 25, 19, 15, 18, 18, 13, 13, 9, 8, 23, 18, 10, 13, 9, 9, 12, 10, 7, 25, 19, 15, 30, 24, 23, 22, 17, 15, 10, 6, 5, 26, 24, 24, 18, 13, 12, 29, 16, 10, 22, 14, 10, 28, 25, 25, 17, 11, 4|];